%%% static parameters %%%
timespan = 1;
Fact = [4];
Distr1 = [15];
Distr2 = [30];
Clients_N = [300];
Demand_W = [15];
Lt0 = [4];
Lt1 = [4];
SS_ = [0.85];
DS_D = [8];
K = [200];
MA = [500];
%%% dynamic parameters %%%
lost_ratio_sales_ret_th = 0.09229889397346303;
lost_ratio_sales_ret_w = 59;
lost_ratio_sales_dis_th = 0.6280631785938432;
lost_ratio_sales_dis_w = 29;
lost_ratio_sales_fac_th = 0.2171351032848421;
lost_ratio_sales_fac_w = 3;
stock_customer_MA_mean_relative_th = 0.9958216289829132;
stock_customer_MA_mean_relative_w = 38;
stock_distributor_MA_mean_relative_th = 0.6237382182716368;
stock_distributor_MA_mean_relative_w = 38;
stock_retailer_MA_mean_relative_th = 0.047677335928538955;
stock_retailer_MA_mean_relative_w = 68;
stock_factory_MA_mean_relative_th = 0.20945736203473186;
stock_factory_MA_mean_relative_w = 42;
